Route #1: 37 11 8 20 5 36 45 21
Route #2: 35 4 1 13 26 39
Route #3: 3 16 27 24 43 14 10 42 18 25 30
Route #4: 34 19 44 17 48 2 40
Route #5: 49 28 32 15 6
Route #6: 23 29 46 9 38 12 22 33 47
Route #7: 31 41 7
Cost 752.6431377434517